1 51 2
-618 -92 -891 -602 -152 -363 -157 -341 -606 -930 -658 -975 -261 -594 -394 -84 -15 -156 -155 -52 -923 -282 -441 -623 -41 -615 -649 -883 -840 -110 -996 -61 -294 -366 -545 -679 -73 -890 -396 -584 -700 -712 -902 -483 -998 -650 -982 -540 -807 -66 0 
-475 -849 -141 -487 -834 -676 -910 -563 -422 -167 -284 -81 -726 -402 -684 -908 -923 -844 -857 -848 -81 -638 -528 -350 -988 -471 -327 -93 -115 -848 -18 -987 -665 -553 -390 -308 -945 -18 -646 -370 -310 -304 -174 -526 -62 -413 -108 -452 -160 -855 0 
184 888 288 427 191 466 363 572 682 402 953 453 678 444 398 891 107 814 786 515 15 146 927 295 292 466 882 759 273 952 644 490 774 957 3 275 885 131 528 952 353 796 313 333 221 661 308 747 189 686 1 
12877 
